Pd Zn                                   
   1.00000000000000     
     6.8837999999999999    0.0000000000000000    0.0000000000000000
     0.0000000000000006    8.3043999999999993    0.0000000000000000
     0.0000000000000014    0.0000000000000014   23.3044000000000011
   Pd   Zn
    20    20
Selective dynamics
Direct
  0.1452686016444389  0.1204230916140858  0.3261186728686454   F   F   F
  0.1452686016444389  0.3704230916140858  0.4152086728686442   F   F   F
  0.1452893909392023  0.1204501832529227  0.5042981252339788   T   T   T
  0.1452783341912854  0.3703649557112095  0.5932658671184718   T   T   T
  0.1452809166967276  0.1204071711631113  0.6793213014625572   T   T   T
  0.1452686016444389  0.6204230916140858  0.3261186728686454   F   F   F
  0.1452686016444389  0.8704230916140858  0.4152086728686442   F   F   F
  0.1452895433298954  0.6204501924594591  0.5042981487418899   T   T   T
  0.1452782291316530  0.8703649436776033  0.5932658555664585   T   T   T
  0.1452808973195864  0.6204073194853459  0.6793213148374532   T   T   T
  0.6452686016444389  0.1204230916140858  0.3261186728686454   F   F   F
  0.6452686016444389  0.3704230916140858  0.4152086728686442   F   F   F
  0.6452894931673204  0.1204501556216557  0.5042981257575228   T   T   T
  0.6452782218437443  0.3703648663698611  0.5932658361018289   T   T   T
  0.6452808863749827  0.1204073137718483  0.6793213126719784   T   T   T
  0.6452686016444389  0.6204230916140858  0.3261186728686454   F   F   F
  0.6452686016444389  0.8704230916140858  0.4152086728686442   F   F   F
  0.6452894285981983  0.6204501597619601  0.5042981371365411   T   T   T
  0.6452783257468512  0.8703649232180382  0.5932658839093143   T   T   T
  0.6452809581635833  0.6204070890315212  0.6793213155984672   T   T   T
  0.3952686016444389  0.3704230916140858  0.3261186728686454   F   F   F
  0.3952686016444389  0.1204230916140858  0.4152086728686442   F   F   F
  0.3952636964617557  0.3705614310610635  0.5043550515326423   T   T   T
  0.3952502939847982  0.1203386920168810  0.5932302637508746   T   T   T
  0.3952098502743636  0.3704411140920320  0.6851523653983521   T   T   T
  0.3952686016444389  0.8704230916140858  0.3261186728686454   F   F   F
  0.3952686016444389  0.6204230916140858  0.4152086728686442   F   F   F
  0.3952637258048379  0.8705615205249657  0.5043550640259600   T   T   T
  0.3952503908845760  0.6203387301178781  0.5932302931311298   T   T   T
  0.3952101170220446  0.8704411387559102  0.6851523516512910   T   T   T
  0.8952686016444389  0.3704230916140858  0.3261186728686454   F   F   F
  0.8952686016444389  0.1204230916140858  0.4152086728686442   F   F   F
  0.8952636275215168  0.3705615228509156  0.5043550488232426   T   T   T
  0.8952502985163303  0.1203387305702267  0.5932302705620562   T   T   T
  0.8952101619947550  0.3704411162410751  0.6851523626750433   T   T   T
  0.8952686016444389  0.8704230916140858  0.3261186728686454   F   F   F
  0.8952686016444389  0.6204230916140858  0.4152086728686442   F   F   F
  0.8952636012431010  0.8705614035497864  0.5043550493272163   T   T   T
  0.8952503470646457  0.6203387001547898  0.5932302661393665   T   T   T
  0.8952099116717339  0.8704411389547970  0.6851523829731497   T   T   T
 
  0.00000000E+00  0.00000000E+00  0.00000000E+00
  0.00000000E+00  0.00000000E+00  0.00000000E+00
  0.00000000E+00  0.00000000E+00  0.00000000E+00
  0.00000000E+00  0.00000000E+00  0.00000000E+00
  0.00000000E+00  0.00000000E+00  0.00000000E+00
  0.00000000E+00  0.00000000E+00  0.00000000E+00
  0.00000000E+00  0.00000000E+00  0.00000000E+00
  0.00000000E+00  0.00000000E+00  0.00000000E+00
  0.00000000E+00  0.00000000E+00  0.00000000E+00
  0.00000000E+00  0.00000000E+00  0.00000000E+00
  0.00000000E+00  0.00000000E+00  0.00000000E+00
  0.00000000E+00  0.00000000E+00  0.00000000E+00
  0.00000000E+00  0.00000000E+00  0.00000000E+00
  0.00000000E+00  0.00000000E+00  0.00000000E+00
  0.00000000E+00  0.00000000E+00  0.00000000E+00
  0.00000000E+00  0.00000000E+00  0.00000000E+00
  0.00000000E+00  0.00000000E+00  0.00000000E+00
  0.00000000E+00  0.00000000E+00  0.00000000E+00
  0.00000000E+00  0.00000000E+00  0.00000000E+00
  0.00000000E+00  0.00000000E+00  0.00000000E+00
  0.00000000E+00  0.00000000E+00  0.00000000E+00
  0.00000000E+00  0.00000000E+00  0.00000000E+00
  0.00000000E+00  0.00000000E+00  0.00000000E+00
  0.00000000E+00  0.00000000E+00  0.00000000E+00
  0.00000000E+00  0.00000000E+00  0.00000000E+00
  0.00000000E+00  0.00000000E+00  0.00000000E+00
  0.00000000E+00  0.00000000E+00  0.00000000E+00
  0.00000000E+00  0.00000000E+00  0.00000000E+00
  0.00000000E+00  0.00000000E+00  0.00000000E+00
  0.00000000E+00  0.00000000E+00  0.00000000E+00
  0.00000000E+00  0.00000000E+00  0.00000000E+00
  0.00000000E+00  0.00000000E+00  0.00000000E+00
  0.00000000E+00  0.00000000E+00  0.00000000E+00
  0.00000000E+00  0.00000000E+00  0.00000000E+00
  0.00000000E+00  0.00000000E+00  0.00000000E+00
  0.00000000E+00  0.00000000E+00  0.00000000E+00
  0.00000000E+00  0.00000000E+00  0.00000000E+00
  0.00000000E+00  0.00000000E+00  0.00000000E+00
  0.00000000E+00  0.00000000E+00  0.00000000E+00
  0.00000000E+00  0.00000000E+00  0.00000000E+00
