Pd Zn Pd Zn Pd Zn Pd Zn Pd  C           
   1.00000000000000     
    11.1661999999999999    0.0000000000000000    0.0000000000000000
    -5.5830854525338864    9.6785342066712001    0.0000000000000000
     0.0000000000000000    0.0000000000000000   25.0000000000000000
   Pd   Zn   Pd   Zn   Pd   Zn   Pd   Zn   Pd   C 
    10     5    15     5    15     5    15     5     5     4
Selective dynamics
Direct
  0.1672250000000020  0.0844700000000032  0.2959999999999994   F   F   F
  0.0004199999999983  0.2508499999999998  0.3872099999999961   F   F   F
  0.3336150000000018  0.4172349999999980  0.4784199999999998   F   F   F
  0.1647363817901442  0.0823574298177614  0.5709342115487995   T   T   T
  0.0023675794260468  0.2509678763513672  0.6667523338028458   T   T   T
  0.4172250000000020  0.0844700000000032  0.2959999999999994   F   F   F
  0.2504199999999983  0.2508499999999998  0.3872099999999961   F   F   F
  0.0836150000000018  0.4172349999999980  0.4784199999999998   F   F   F
  0.4173282096861594  0.0824236421810196  0.5710684947690311   T   T   T
  0.2472537038788027  0.2511850654470558  0.6666219055074579   T   T   T
  0.1672250000000020  0.3344700000000032  0.2959999999999994   F   F   F
  0.0004199999999983  0.0008499999999998  0.3872099999999961   F   F   F
  0.3336150000000018  0.1672349999999980  0.4784199999999998   F   F   F
  0.1661317219917825  0.3329927766484576  0.5687051995489706   T   T   T
  0.9994765868347575  0.9995670886111051  0.6648189177904992   T   T   T
  0.4172250000000020  0.3344700000000032  0.2959999999999994   F   F   F
  0.2504199999999983  0.0008499999999998  0.3872099999999961   F   F   F
  0.0836150000000018  0.1672349999999980  0.4784199999999998   F   F   F
  0.4172375378956007  0.3347463162512351  0.5710736244090235   T   T   T
  0.2471539575550460  0.9955982376090428  0.6664642361141399   T   T   T
  0.1672250000000020  0.5844700000000032  0.2959999999999994   F   F   F
  0.0004199999999983  0.7508499999999998  0.3872099999999961   F   F   F
  0.3336150000000018  0.9172349999999980  0.4784199999999998   F   F   F
  0.1646954658081184  0.5822140353503314  0.5709649348525032   T   T   T
  0.0024881257264676  0.7509471918988043  0.6667191976566058   T   T   T
  0.4172250000000020  0.5844700000000032  0.2959999999999994   F   F   F
  0.2504199999999983  0.7508499999999998  0.3872099999999961   F   F   F
  0.0836150000000018  0.9172349999999980  0.4784199999999998   F   F   F
  0.4171812633486148  0.5823278321067314  0.5710506384270648   T   T   T
  0.2472879321981550  0.7511519829851734  0.6666966497300970   T   T   T
  0.1672250000000020  0.8344700000000032  0.2959999999999994   F   F   F
  0.0004199999999983  0.5008499999999998  0.3872099999999961   F   F   F
  0.3336150000000018  0.6672349999999980  0.4784199999999998   F   F   F
  0.1662161155558817  0.8330677581533541  0.5686990231762478   T   T   T
  0.9994270726694864  0.4995147304443417  0.6648362646060032   T   T   T
  0.4172250000000020  0.8344700000000032  0.2959999999999994   F   F   F
  0.2504199999999983  0.5008499999999998  0.3872099999999961   F   F   F
  0.0836150000000018  0.6672349999999980  0.4784199999999998   F   F   F
  0.4170673134144257  0.8346607660341724  0.5710703582642102   T   T   T
  0.2470863254848602  0.4955719482485871  0.6665535021964781   T   T   T
  0.6672250000000020  0.0844700000000032  0.2959999999999994   F   F   F
  0.5004199999999983  0.2508499999999998  0.3872099999999961   F   F   F
  0.8336150000000018  0.4172349999999980  0.4784199999999998   F   F   F
  0.6645736050641098  0.0820926023192033  0.5708017174551929   T   T   T
  0.5021586625205251  0.2509294957323442  0.6671384606212761   T   T   T
  0.9172250000000020  0.0844700000000032  0.2959999999999994   F   F   F
  0.7504199999999983  0.2508499999999998  0.3872099999999961   F   F   F
  0.5836150000000018  0.4172349999999980  0.4784199999999998   F   F   F
  0.9171401081662319  0.0820879100030737  0.5709269074740696   T   T   T
  0.7471424149676017  0.2510893653753382  0.6663790328000135   T   T   T
  0.6672250000000020  0.3344700000000032  0.2959999999999994   F   F   F
  0.5004199999999983  0.0008499999999998  0.3872099999999961   F   F   F
  0.8336150000000018  0.1672349999999980  0.4784199999999998   F   F   F
  0.6659750876144684  0.3328659074873718  0.5687279657028320   T   T   T
  0.4995232879442019 -0.0003681721981985  0.6649262241539428   T   T   T
  0.9172250000000020  0.3344700000000032  0.2959999999999994   F   F   F
  0.7504199999999983  0.0008499999999998  0.3872099999999961   F   F   F
  0.5836150000000018  0.1672349999999980  0.4784199999999998   F   F   F
  0.9171673576074435  0.3345368794208661  0.5708821192466689   T   T   T
  0.7469944777399522  0.9954844044193093  0.6663155055927007   T   T   T
  0.6672250000000020  0.5844700000000032  0.2959999999999994   F   F   F
  0.5004199999999983  0.7508499999999998  0.3872099999999961   F   F   F
  0.8336150000000018  0.9172349999999980  0.4784199999999998   F   F   F
  0.6646295075743819  0.5822315083218260  0.5707430515498287   T   T   T
  0.5021996197295917  0.7508873775030906  0.6670848641336107   T   T   T
  0.9172250000000020  0.5844700000000032  0.2959999999999994   F   F   F
  0.7504199999999983  0.7508499999999998  0.3872099999999961   F   F   F
  0.5836150000000018  0.9172349999999980  0.4784199999999998   F   F   F
  0.9170938024921126  0.5821084869561347  0.5708848527953286   T   T   T
  0.7472533977281709  0.7512126313726951  0.6662987329257362   T   T   T
  0.6672250000000020  0.8344700000000032  0.2959999999999994   F   F   F
  0.5004199999999983  0.5008499999999998  0.3872099999999961   F   F   F
  0.8336150000000018  0.6672349999999980  0.4784199999999998   F   F   F
  0.6658514594305301  0.8328221446596314  0.5687343210965151   T   T   T
  0.4995714722843438  0.4996791828356003  0.6649208357343650   T   T   T
  0.9172250000000020  0.8344700000000032  0.2959999999999994   F   F   F
  0.7504199999999983  0.5008499999999998  0.3872099999999961   F   F   F
  0.5836150000000018  0.6672349999999980  0.4784199999999998   F   F   F
  0.9172637100592791  0.8345726977955976  0.5708684093104091   T   T   T
  0.7470901251216647  0.4955311828133583  0.6662932180507469   T   T   T
  0.3327132886336338  0.6662304969044651  0.6199848727182649   T   T   T
  0.3328358809142254  0.1663125439401754  0.6199462691858093   T   T   T
  0.8327714739691219  0.6661569820168100  0.6197180172351111   T   T   T
  0.8326474773476502  0.1660377266408102  0.6197660172471964   T   T   T
 
  0.00000000E+00  0.00000000E+00  0.00000000E+00
  0.00000000E+00  0.00000000E+00  0.00000000E+00
  0.00000000E+00  0.00000000E+00  0.00000000E+00
  0.00000000E+00  0.00000000E+00  0.00000000E+00
  0.00000000E+00  0.00000000E+00  0.00000000E+00
  0.00000000E+00  0.00000000E+00  0.00000000E+00
  0.00000000E+00  0.00000000E+00  0.00000000E+00
  0.00000000E+00  0.00000000E+00  0.00000000E+00
  0.00000000E+00  0.00000000E+00  0.00000000E+00
  0.00000000E+00  0.00000000E+00  0.00000000E+00
  0.00000000E+00  0.00000000E+00  0.00000000E+00
  0.00000000E+00  0.00000000E+00  0.00000000E+00
  0.00000000E+00  0.00000000E+00  0.00000000E+00
  0.00000000E+00  0.00000000E+00  0.00000000E+00
  0.00000000E+00  0.00000000E+00  0.00000000E+00
  0.00000000E+00  0.00000000E+00  0.00000000E+00
  0.00000000E+00  0.00000000E+00  0.00000000E+00
  0.00000000E+00  0.00000000E+00  0.00000000E+00
  0.00000000E+00  0.00000000E+00  0.00000000E+00
  0.00000000E+00  0.00000000E+00  0.00000000E+00
  0.00000000E+00  0.00000000E+00  0.00000000E+00
  0.00000000E+00  0.00000000E+00  0.00000000E+00
  0.00000000E+00  0.00000000E+00  0.00000000E+00
  0.00000000E+00  0.00000000E+00  0.00000000E+00
  0.00000000E+00  0.00000000E+00  0.00000000E+00
  0.00000000E+00  0.00000000E+00  0.00000000E+00
  0.00000000E+00  0.00000000E+00  0.00000000E+00
  0.00000000E+00  0.00000000E+00  0.00000000E+00
  0.00000000E+00  0.00000000E+00  0.00000000E+00
  0.00000000E+00  0.00000000E+00  0.00000000E+00
  0.00000000E+00  0.00000000E+00  0.00000000E+00
  0.00000000E+00  0.00000000E+00  0.00000000E+00
  0.00000000E+00  0.00000000E+00  0.00000000E+00
  0.00000000E+00  0.00000000E+00  0.00000000E+00
  0.00000000E+00  0.00000000E+00  0.00000000E+00
  0.00000000E+00  0.00000000E+00  0.00000000E+00
  0.00000000E+00  0.00000000E+00  0.00000000E+00
  0.00000000E+00  0.00000000E+00  0.00000000E+00
  0.00000000E+00  0.00000000E+00  0.00000000E+00
  0.00000000E+00  0.00000000E+00  0.00000000E+00
  0.00000000E+00  0.00000000E+00  0.00000000E+00
  0.00000000E+00  0.00000000E+00  0.00000000E+00
  0.00000000E+00  0.00000000E+00  0.00000000E+00
  0.00000000E+00  0.00000000E+00  0.00000000E+00
  0.00000000E+00  0.00000000E+00  0.00000000E+00
  0.00000000E+00  0.00000000E+00  0.00000000E+00
  0.00000000E+00  0.00000000E+00  0.00000000E+00
  0.00000000E+00  0.00000000E+00  0.00000000E+00
  0.00000000E+00  0.00000000E+00  0.00000000E+00
  0.00000000E+00  0.00000000E+00  0.00000000E+00
  0.00000000E+00  0.00000000E+00  0.00000000E+00
  0.00000000E+00  0.00000000E+00  0.00000000E+00
  0.00000000E+00  0.00000000E+00  0.00000000E+00
  0.00000000E+00  0.00000000E+00  0.00000000E+00
  0.00000000E+00  0.00000000E+00  0.00000000E+00
  0.00000000E+00  0.00000000E+00  0.00000000E+00
  0.00000000E+00  0.00000000E+00  0.00000000E+00
  0.00000000E+00  0.00000000E+00  0.00000000E+00
  0.00000000E+00  0.00000000E+00  0.00000000E+00
  0.00000000E+00  0.00000000E+00  0.00000000E+00
  0.00000000E+00  0.00000000E+00  0.00000000E+00
  0.00000000E+00  0.00000000E+00  0.00000000E+00
  0.00000000E+00  0.00000000E+00  0.00000000E+00
  0.00000000E+00  0.00000000E+00  0.00000000E+00
  0.00000000E+00  0.00000000E+00  0.00000000E+00
  0.00000000E+00  0.00000000E+00  0.00000000E+00
  0.00000000E+00  0.00000000E+00  0.00000000E+00
  0.00000000E+00  0.00000000E+00  0.00000000E+00
  0.00000000E+00  0.00000000E+00  0.00000000E+00
  0.00000000E+00  0.00000000E+00  0.00000000E+00
  0.00000000E+00  0.00000000E+00  0.00000000E+00
  0.00000000E+00  0.00000000E+00  0.00000000E+00
  0.00000000E+00  0.00000000E+00  0.00000000E+00
  0.00000000E+00  0.00000000E+00  0.00000000E+00
  0.00000000E+00  0.00000000E+00  0.00000000E+00
  0.00000000E+00  0.00000000E+00  0.00000000E+00
  0.00000000E+00  0.00000000E+00  0.00000000E+00
  0.00000000E+00  0.00000000E+00  0.00000000E+00
  0.00000000E+00  0.00000000E+00  0.00000000E+00
  0.00000000E+00  0.00000000E+00  0.00000000E+00
  0.00000000E+00  0.00000000E+00  0.00000000E+00
  0.00000000E+00  0.00000000E+00  0.00000000E+00
  0.00000000E+00  0.00000000E+00  0.00000000E+00
  0.00000000E+00  0.00000000E+00  0.00000000E+00
