Pd                                      
   1.00000000000000     
    11.2486546759999992    0.0000000000000000    0.0000000000000000
     5.6243273379999996    9.7416207079999992    0.0000000000000000
     0.0000000000000000    0.0000000000000000   25.0000000000000000
   Pd
    64
Selective dynamics
Direct
  0.0000000000000000  0.0000000000000000  0.6001506524863988   T   T   T
  0.2500000000000000 -0.0000000000000000  0.6001506524863988   T   T   T
 -0.0000000000000000  0.2500000000000000  0.6001506524863988   T   T   T
  0.2500000000000000  0.2500000000000000  0.6001506524863988   T   T   T
  0.0833333333500050  0.0833333333499979  0.5077039680462447   T   T   T
  0.3333333333499979  0.0833333333499979  0.5077039680462447   T   T   T
  0.0833333333500050  0.3333333333499979  0.5077039680462447   T   T   T
  0.3333333333499979  0.3333333333499979  0.5077039680462447   T   T   T
  0.1666666666500021  0.1666666666499950  0.4163102380000012   F   F   F
  0.4166666666500021  0.1666666666499950  0.4163102380000012   F   F   F
  0.1666666666499950  0.4166666666499950  0.4163102380000012   F   F   F
  0.4166666666500021  0.4166666666499950  0.4163102380000012   F   F   F
  0.0000000000000000  0.0000000000000000  0.3244653570000011   F   F   F
  0.2500000000000000  0.0000000000000000  0.3244653570000011   F   F   F
  0.0000000000000000  0.2500000000000000  0.3244653570000011   F   F   F
  0.2500000000000000  0.2500000000000000  0.3244653570000011   F   F   F
 -0.0000000000000000  0.5000000000000000  0.6001506524863988   T   T   T
  0.2500000000000000  0.5000000000000000  0.6001506524863988   T   T   T
 -0.0000000000000000  0.7500000000000000  0.6001506524863988   T   T   T
  0.2500000000000000  0.7500000000000000  0.6001506524863988   T   T   T
  0.0833333333500050  0.5833333333499979  0.5077039680462447   T   T   T
  0.3333333333500050  0.5833333333499979  0.5077039680462447   T   T   T
  0.0833333333499979  0.8333333333499979  0.5077039680462447   T   T   T
  0.3333333333499979  0.8333333333499979  0.5077039680462447   T   T   T
  0.1666666666500021  0.6666666666499950  0.4163102380000012   F   F   F
  0.4166666666499950  0.6666666666499950  0.4163102380000012   F   F   F
  0.1666666666500021  0.9166666666499950  0.4163102380000012   F   F   F
  0.4166666666500021  0.9166666666499950  0.4163102380000012   F   F   F
  0.0000000000000000  0.5000000000000000  0.3244653570000011   F   F   F
  0.2500000000000000  0.5000000000000000  0.3244653570000011   F   F   F
  0.0000000000000000  0.7500000000000000  0.3244653570000011   F   F   F
  0.2500000000000000  0.7500000000000000  0.3244653570000011   F   F   F
  0.5000000000000000  0.0000000000000000  0.6001506524863988   T   T   T
  0.7500000000000000  0.0000000000000000  0.6001506524863988   T   T   T
  0.5000000000000000  0.2500000000000000  0.6001506524863988   T   T   T
  0.7500000000000000  0.2500000000000000  0.6001506524863988   T   T   T
  0.5833333333499979  0.0833333333499979  0.5077039680462447   T   T   T
  0.8333333333499979  0.0833333333499979  0.5077039680462447   T   T   T
  0.5833333333499979  0.3333333333499979  0.5077039680462447   T   T   T
  0.8333333333499979  0.3333333333499979  0.5077039680462447   T   T   T
  0.6666666666499950  0.1666666666499950  0.4163102380000012   F   F   F
  0.9166666666500021  0.1666666666499950  0.4163102380000012   F   F   F
  0.6666666666499950  0.4166666666499950  0.4163102380000012   F   F   F
  0.9166666666500021  0.4166666666499950  0.4163102380000012   F   F   F
  0.5000000000000000  0.0000000000000000  0.3244653570000011   F   F   F
  0.7500000000000000  0.0000000000000000  0.3244653570000011   F   F   F
  0.5000000000000000  0.2500000000000000  0.3244653570000011   F   F   F
  0.7500000000000000  0.2500000000000000  0.3244653570000011   F   F   F
  0.5000000000000000  0.5000000000000000  0.6001506524863988   T   T   T
  0.7500000000000000  0.5000000000000000  0.6001506524863988   T   T   T
  0.5000000000000000  0.7500000000000000  0.6001506524863988   T   T   T
  0.7500000000000000  0.7500000000000000  0.6001506524863988   T   T   T
  0.5833333333499979  0.5833333333499979  0.5077039680462447   T   T   T
  0.8333333333499979  0.5833333333499979  0.5077039680462447   T   T   T
  0.5833333333499979  0.8333333333499979  0.5077039680462447   T   T   T
  0.8333333333499979  0.8333333333499979  0.5077039680462447   T   T   T
  0.6666666666500021  0.6666666666499950  0.4163102380000012   F   F   F
  0.9166666666500021  0.6666666666499950  0.4163102380000012   F   F   F
  0.6666666666500021  0.9166666666499950  0.4163102380000012   F   F   F
  0.9166666666500021  0.9166666666499950  0.4163102380000012   F   F   F
  0.5000000000000000  0.5000000000000000  0.3244653570000011   F   F   F
  0.7500000000000000  0.5000000000000000  0.3244653570000011   F   F   F
  0.5000000000000000  0.7500000000000000  0.3244653570000011   F   F   F
  0.7500000000000000  0.7500000000000000  0.3244653570000011   F   F   F
 
  0.00000000E+00  0.00000000E+00  0.00000000E+00
  0.00000000E+00  0.00000000E+00  0.00000000E+00
  0.00000000E+00  0.00000000E+00  0.00000000E+00
  0.00000000E+00  0.00000000E+00  0.00000000E+00
  0.00000000E+00  0.00000000E+00  0.00000000E+00
  0.00000000E+00  0.00000000E+00  0.00000000E+00
  0.00000000E+00  0.00000000E+00  0.00000000E+00
  0.00000000E+00  0.00000000E+00  0.00000000E+00
  0.00000000E+00  0.00000000E+00  0.00000000E+00
  0.00000000E+00  0.00000000E+00  0.00000000E+00
  0.00000000E+00  0.00000000E+00  0.00000000E+00
  0.00000000E+00  0.00000000E+00  0.00000000E+00
  0.00000000E+00  0.00000000E+00  0.00000000E+00
  0.00000000E+00  0.00000000E+00  0.00000000E+00
  0.00000000E+00  0.00000000E+00  0.00000000E+00
  0.00000000E+00  0.00000000E+00  0.00000000E+00
  0.00000000E+00  0.00000000E+00  0.00000000E+00
  0.00000000E+00  0.00000000E+00  0.00000000E+00
  0.00000000E+00  0.00000000E+00  0.00000000E+00
  0.00000000E+00  0.00000000E+00  0.00000000E+00
  0.00000000E+00  0.00000000E+00  0.00000000E+00
  0.00000000E+00  0.00000000E+00  0.00000000E+00
  0.00000000E+00  0.00000000E+00  0.00000000E+00
  0.00000000E+00  0.00000000E+00  0.00000000E+00
  0.00000000E+00  0.00000000E+00  0.00000000E+00
  0.00000000E+00  0.00000000E+00  0.00000000E+00
  0.00000000E+00  0.00000000E+00  0.00000000E+00
  0.00000000E+00  0.00000000E+00  0.00000000E+00
  0.00000000E+00  0.00000000E+00  0.00000000E+00
  0.00000000E+00  0.00000000E+00  0.00000000E+00
  0.00000000E+00  0.00000000E+00  0.00000000E+00
  0.00000000E+00  0.00000000E+00  0.00000000E+00
  0.00000000E+00  0.00000000E+00  0.00000000E+00
  0.00000000E+00  0.00000000E+00  0.00000000E+00
  0.00000000E+00  0.00000000E+00  0.00000000E+00
  0.00000000E+00  0.00000000E+00  0.00000000E+00
  0.00000000E+00  0.00000000E+00  0.00000000E+00
  0.00000000E+00  0.00000000E+00  0.00000000E+00
  0.00000000E+00  0.00000000E+00  0.00000000E+00
  0.00000000E+00  0.00000000E+00  0.00000000E+00
  0.00000000E+00  0.00000000E+00  0.00000000E+00
  0.00000000E+00  0.00000000E+00  0.00000000E+00
  0.00000000E+00  0.00000000E+00  0.00000000E+00
  0.00000000E+00  0.00000000E+00  0.00000000E+00
  0.00000000E+00  0.00000000E+00  0.00000000E+00
  0.00000000E+00  0.00000000E+00  0.00000000E+00
  0.00000000E+00  0.00000000E+00  0.00000000E+00
  0.00000000E+00  0.00000000E+00  0.00000000E+00
  0.00000000E+00  0.00000000E+00  0.00000000E+00
  0.00000000E+00  0.00000000E+00  0.00000000E+00
  0.00000000E+00  0.00000000E+00  0.00000000E+00
  0.00000000E+00  0.00000000E+00  0.00000000E+00
  0.00000000E+00  0.00000000E+00  0.00000000E+00
  0.00000000E+00  0.00000000E+00  0.00000000E+00
  0.00000000E+00  0.00000000E+00  0.00000000E+00
  0.00000000E+00  0.00000000E+00  0.00000000E+00
  0.00000000E+00  0.00000000E+00  0.00000000E+00
  0.00000000E+00  0.00000000E+00  0.00000000E+00
  0.00000000E+00  0.00000000E+00  0.00000000E+00
  0.00000000E+00  0.00000000E+00  0.00000000E+00
  0.00000000E+00  0.00000000E+00  0.00000000E+00
  0.00000000E+00  0.00000000E+00  0.00000000E+00
  0.00000000E+00  0.00000000E+00  0.00000000E+00
  0.00000000E+00  0.00000000E+00  0.00000000E+00
