Pd Zn Pd                                
   1.00000000000000     
     3.9478820664419292   -0.0000018260948953   -0.0000006488161403
    -0.0000018249401820    3.9478341341425573    0.0000006907681783
    -0.0000004783538611    0.0000007331823589    3.9528975769501620
   Pd   Zn   Pd
     2     1     1
Direct
  0.0000000163993903  0.5000000490848464  0.4999999611484895
  0.5000000482977498  0.0000000052052158  0.5000000154424598
  0.9999999718916968  0.9999999788034586  0.9999999837425193
  0.4999999634111560  0.4999999669064863  0.0000000396665314
 
  0.00000000E+00  0.00000000E+00  0.00000000E+00
  0.00000000E+00  0.00000000E+00  0.00000000E+00
  0.00000000E+00  0.00000000E+00  0.00000000E+00
  0.00000000E+00  0.00000000E+00  0.00000000E+00
