Pd Zn Pd Zn Pd Zn Pd Zn Pd  C  H        
   1.00000000000000     
    11.1661999999999999    0.0000000000000000    0.0000000000000000
    -5.5830854525338864    9.6785342066712001    0.0000000000000000
     0.0000000000000000    0.0000000000000000   25.0000000000000000
   Pd   Zn   Pd   Zn   Pd   Zn   Pd   Zn   Pd   C    H 
    10     5    15     5    15     5    15     5     5     4     4
Selective dynamics
Direct
  0.1672250000000020  0.0844700000000032  0.2959999999999994   F   F   F
  0.0004199999999983  0.2508499999999998  0.3872099999999961   F   F   F
  0.3336150000000018  0.4172349999999980  0.4784199999999998   F   F   F
  0.1649893102246207  0.0840238782721732  0.5709993756578537   T   T   T
  0.0045797316418954  0.2547344505081150  0.6664242136303968   T   T   T
  0.4172250000000020  0.0844700000000032  0.2959999999999994   F   F   F
  0.2504199999999983  0.2508499999999998  0.3872099999999961   F   F   F
  0.0836150000000018  0.4172349999999980  0.4784199999999998   F   F   F
  0.4172781896451268  0.0843498653172903  0.5711777159436776   T   T   T
  0.2460916692438885  0.2541987282644333  0.6660841890885543   T   T   T
  0.1672250000000020  0.3344700000000032  0.2959999999999994   F   F   F
  0.0004199999999983  0.0008499999999998  0.3872099999999961   F   F   F
  0.3336150000000018  0.1672349999999980  0.4784199999999998   F   F   F
  0.1669748744383523  0.3354668436646083  0.5674850625847057   T   T   T
  0.9994376889761961  0.0015106334902263  0.6637156379852874   T   T   T
  0.4172250000000020  0.3344700000000032  0.2959999999999994   F   F   F
  0.2504199999999983  0.0008499999999998  0.3872099999999961   F   F   F
  0.0836150000000018  0.1672349999999980  0.4784199999999998   F   F   F
  0.4173248555451830  0.3365947835693578  0.5712694190957737   T   T   T
  0.2464504268767941  0.9961319533512527  0.6662747444748707   T   T   T
  0.1672250000000020  0.5844700000000032  0.2959999999999994   F   F   F
  0.0004199999999983  0.7508499999999998  0.3872099999999961   F   F   F
  0.3336150000000018  0.9172349999999980  0.4784199999999998   F   F   F
  0.1652161986990683  0.5844546353775543  0.5710535669797937   T   T   T
  0.0044771697359425  0.7543556693689311  0.6665438062425503   T   T   T
  0.4172250000000020  0.5844700000000032  0.2959999999999994   F   F   F
  0.2504199999999983  0.7508499999999998  0.3872099999999961   F   F   F
  0.0836150000000018  0.9172349999999980  0.4784199999999998   F   F   F
  0.4173633293525889  0.5844404066026637  0.5711963546278985   T   T   T
  0.2462997660437325  0.7543573564283044  0.6661154727045937   T   T   T
  0.1672250000000020  0.8344700000000032  0.2959999999999994   F   F   F
  0.0004199999999983  0.5008499999999998  0.3872099999999961   F   F   F
  0.3336150000000018  0.6672349999999980  0.4784199999999998   F   F   F
  0.1665463522859986  0.8349823043766087  0.5674028887421905   T   T   T
  0.9995542824104157  0.5014435638031604  0.6639141662111632   T   T   T
  0.4172250000000020  0.8344700000000032  0.2959999999999994   F   F   F
  0.2504199999999983  0.5008499999999998  0.3872099999999961   F   F   F
  0.0836150000000018  0.6672349999999980  0.4784199999999998   F   F   F
  0.4176651805852458  0.8367096117808098  0.5713009598602253   T   T   T
  0.2468178051500804  0.4964011739338987  0.6663354361385662   T   T   T
  0.6672250000000020  0.0844700000000032  0.2959999999999994   F   F   F
  0.5004199999999983  0.2508499999999998  0.3872099999999961   F   F   F
  0.8336150000000018  0.4172349999999980  0.4784199999999998   F   F   F
  0.6652777015608158  0.0845533708207595  0.5709563927965987   T   T   T
  0.5042953286020404  0.2542885764682040  0.6665324813507640   T   T   T
  0.9172250000000020  0.0844700000000032  0.2959999999999994   F   F   F
  0.7504199999999983  0.2508499999999998  0.3872099999999961   F   F   F
  0.5836150000000018  0.4172349999999980  0.4784199999999998   F   F   F
  0.9173373982718807  0.0846071541406025  0.5711482295881203   T   T   T
  0.7464770216334892  0.2550919333458574  0.6658762296407404   T   T   T
  0.6672250000000020  0.3344700000000032  0.2959999999999994   F   F   F
  0.5004199999999983  0.0008499999999998  0.3872099999999961   F   F   F
  0.8336150000000018  0.1672349999999980  0.4784199999999998   F   F   F
  0.6666702657074174  0.3355142695702149  0.5676536670208250   T   T   T
  0.4996043837153457  0.0015349691507406  0.6637960911285403   T   T   T
  0.9172250000000020  0.3344700000000032  0.2959999999999994   F   F   F
  0.7504199999999983  0.0008499999999998  0.3872099999999961   F   F   F
  0.5836150000000018  0.1672349999999980  0.4784199999999998   F   F   F
  0.9177276620779459  0.3369825061569240  0.5711793762155328   T   T   T
  0.7463567752875063 -0.0033548942361670  0.6661693364970057   T   T   T
  0.6672250000000020  0.5844700000000032  0.2959999999999994   F   F   F
  0.5004199999999983  0.7508499999999998  0.3872099999999961   F   F   F
  0.8336150000000018  0.9172349999999980  0.4784199999999998   F   F   F
  0.6649176438492204  0.5842136747685096  0.5711504976796321   T   T   T
  0.5045415417024671  0.7544312018332461  0.6666063977092193   T   T   T
  0.9172250000000020  0.5844700000000032  0.2959999999999994   F   F   F
  0.7504199999999983  0.7508499999999998  0.3872099999999961   F   F   F
  0.5836150000000018  0.9172349999999980  0.4784199999999998   F   F   F
  0.9170836451308627  0.5843832744187953  0.5712919532246856   T   T   T
  0.7464729336963795  0.7548995886141465  0.6662073402798300   T   T   T
  0.6672250000000020  0.8344700000000032  0.2959999999999994   F   F   F
  0.5004199999999983  0.5008499999999998  0.3872099999999961   F   F   F
  0.8336150000000018  0.6672349999999980  0.4784199999999998   F   F   F
  0.6668522649820628  0.8354775227842083  0.5674314975545344   T   T   T
  0.4994631691486108  0.5011768110694554  0.6640292162884354   T   T   T
  0.9172250000000020  0.8344700000000032  0.2959999999999994   F   F   F
  0.7504199999999983  0.5008499999999998  0.3872099999999961   F   F   F
  0.5836150000000018  0.6672349999999980  0.4784199999999998   F   F   F
  0.9171879556747404  0.8365081940706500  0.5712698327584582   T   T   T
  0.7461530485490538  0.4966925784472190  0.6665585810997201   T   T   T
  0.3329474010542521  0.6684343975412894  0.6214543464344372   T   T   T
  0.3326229043085169  0.1681804856139701  0.6214437821670576   T   T   T
  0.8326640342381018  0.6684980805388536  0.6215578368818250   T   T   T
  0.8329832473450429  0.1688086554155201  0.6213784170638169   T   T   T
  0.6657962545716022  0.3350607601665663  0.7096420935348748   T   T   T
  0.1659494190099763  0.3351071382069583  0.7095986818301586   T   T   T
  0.1659866589696517  0.8349424679816281  0.7096884516657602   T   T   T
  0.6661648008133191  0.8358388970022862  0.7096369069115696   T   T   T
 
  0.00000000E+00  0.00000000E+00  0.00000000E+00
  0.00000000E+00  0.00000000E+00  0.00000000E+00
  0.00000000E+00  0.00000000E+00  0.00000000E+00
  0.00000000E+00  0.00000000E+00  0.00000000E+00
  0.00000000E+00  0.00000000E+00  0.00000000E+00
  0.00000000E+00  0.00000000E+00  0.00000000E+00
  0.00000000E+00  0.00000000E+00  0.00000000E+00
  0.00000000E+00  0.00000000E+00  0.00000000E+00
  0.00000000E+00  0.00000000E+00  0.00000000E+00
  0.00000000E+00  0.00000000E+00  0.00000000E+00
  0.00000000E+00  0.00000000E+00  0.00000000E+00
  0.00000000E+00  0.00000000E+00  0.00000000E+00
  0.00000000E+00  0.00000000E+00  0.00000000E+00
  0.00000000E+00  0.00000000E+00  0.00000000E+00
  0.00000000E+00  0.00000000E+00  0.00000000E+00
  0.00000000E+00  0.00000000E+00  0.00000000E+00
  0.00000000E+00  0.00000000E+00  0.00000000E+00
  0.00000000E+00  0.00000000E+00  0.00000000E+00
  0.00000000E+00  0.00000000E+00  0.00000000E+00
  0.00000000E+00  0.00000000E+00  0.00000000E+00
  0.00000000E+00  0.00000000E+00  0.00000000E+00
  0.00000000E+00  0.00000000E+00  0.00000000E+00
  0.00000000E+00  0.00000000E+00  0.00000000E+00
  0.00000000E+00  0.00000000E+00  0.00000000E+00
  0.00000000E+00  0.00000000E+00  0.00000000E+00
  0.00000000E+00  0.00000000E+00  0.00000000E+00
  0.00000000E+00  0.00000000E+00  0.00000000E+00
  0.00000000E+00  0.00000000E+00  0.00000000E+00
  0.00000000E+00  0.00000000E+00  0.00000000E+00
  0.00000000E+00  0.00000000E+00  0.00000000E+00
  0.00000000E+00  0.00000000E+00  0.00000000E+00
  0.00000000E+00  0.00000000E+00  0.00000000E+00
  0.00000000E+00  0.00000000E+00  0.00000000E+00
  0.00000000E+00  0.00000000E+00  0.00000000E+00
  0.00000000E+00  0.00000000E+00  0.00000000E+00
  0.00000000E+00  0.00000000E+00  0.00000000E+00
  0.00000000E+00  0.00000000E+00  0.00000000E+00
  0.00000000E+00  0.00000000E+00  0.00000000E+00
  0.00000000E+00  0.00000000E+00  0.00000000E+00
  0.00000000E+00  0.00000000E+00  0.00000000E+00
  0.00000000E+00  0.00000000E+00  0.00000000E+00
  0.00000000E+00  0.00000000E+00  0.00000000E+00
  0.00000000E+00  0.00000000E+00  0.00000000E+00
  0.00000000E+00  0.00000000E+00  0.00000000E+00
  0.00000000E+00  0.00000000E+00  0.00000000E+00
  0.00000000E+00  0.00000000E+00  0.00000000E+00
  0.00000000E+00  0.00000000E+00  0.00000000E+00
  0.00000000E+00  0.00000000E+00  0.00000000E+00
  0.00000000E+00  0.00000000E+00  0.00000000E+00
  0.00000000E+00  0.00000000E+00  0.00000000E+00
  0.00000000E+00  0.00000000E+00  0.00000000E+00
  0.00000000E+00  0.00000000E+00  0.00000000E+00
  0.00000000E+00  0.00000000E+00  0.00000000E+00
  0.00000000E+00  0.00000000E+00  0.00000000E+00
  0.00000000E+00  0.00000000E+00  0.00000000E+00
  0.00000000E+00  0.00000000E+00  0.00000000E+00
  0.00000000E+00  0.00000000E+00  0.00000000E+00
  0.00000000E+00  0.00000000E+00  0.00000000E+00
  0.00000000E+00  0.00000000E+00  0.00000000E+00
  0.00000000E+00  0.00000000E+00  0.00000000E+00
  0.00000000E+00  0.00000000E+00  0.00000000E+00
  0.00000000E+00  0.00000000E+00  0.00000000E+00
  0.00000000E+00  0.00000000E+00  0.00000000E+00
  0.00000000E+00  0.00000000E+00  0.00000000E+00
  0.00000000E+00  0.00000000E+00  0.00000000E+00
  0.00000000E+00  0.00000000E+00  0.00000000E+00
  0.00000000E+00  0.00000000E+00  0.00000000E+00
  0.00000000E+00  0.00000000E+00  0.00000000E+00
  0.00000000E+00  0.00000000E+00  0.00000000E+00
  0.00000000E+00  0.00000000E+00  0.00000000E+00
  0.00000000E+00  0.00000000E+00  0.00000000E+00
  0.00000000E+00  0.00000000E+00  0.00000000E+00
  0.00000000E+00  0.00000000E+00  0.00000000E+00
  0.00000000E+00  0.00000000E+00  0.00000000E+00
  0.00000000E+00  0.00000000E+00  0.00000000E+00
  0.00000000E+00  0.00000000E+00  0.00000000E+00
  0.00000000E+00  0.00000000E+00  0.00000000E+00
  0.00000000E+00  0.00000000E+00  0.00000000E+00
  0.00000000E+00  0.00000000E+00  0.00000000E+00
  0.00000000E+00  0.00000000E+00  0.00000000E+00
  0.00000000E+00  0.00000000E+00  0.00000000E+00
  0.00000000E+00  0.00000000E+00  0.00000000E+00
  0.00000000E+00  0.00000000E+00  0.00000000E+00
  0.00000000E+00  0.00000000E+00  0.00000000E+00
  0.00000000E+00  0.00000000E+00  0.00000000E+00
  0.00000000E+00  0.00000000E+00  0.00000000E+00
  0.00000000E+00  0.00000000E+00  0.00000000E+00
  0.00000000E+00  0.00000000E+00  0.00000000E+00
