Pd Zn Pd Zn Pd  C Pd Zn Pd Zn Pd Zn Pd Z
   1.00000000000000     
     7.9475170785225169    0.0000001172648943    0.0000001149338685
     0.0000001235897380    7.9475268858409898    0.0000001480151273
     0.0000004603182523    0.0000002303768198    7.9512578252233626
   Pd   Zn   Pd   Zn   Pd   C    Pd   Zn   Pd   Zn   Pd   Zn   Pd   Zn   Pd   Zn   Pd   Zn   Pd
     2     1     3     1     1     1     2     1     3     1     3     1     3     1     3     1     3     1     1
Direct
 -0.0006723381880900  0.2500000320309701  0.2499998121492154
  0.2500000246036838 -0.0006723164195792  0.2499998074745033
  0.5037890088777338  0.9962109061104082  0.0037868758099920
  0.2500000229436835  0.2500000129301989  0.4951472076971996
 -0.0049502307944741  0.2499999849368053  0.7499998231815588
  0.2499999920553219 -0.0049501423990633  0.7499998418665276
  0.5037890310629188  0.9962109699318794  0.4962131288140322
  0.2499999916148080  0.2500000068363027  0.0048527996795030
  0.2499999520882051  0.2499999180796966  0.7500000372053677
 -0.0003152721182312  0.7500000036361295  0.2499997253837627
  0.2500000225242326  0.5006723687378857  0.2500001976363815
  0.5037888963831737  0.5037889819202666  0.0037895797089699
  0.2500000018208686  0.7499999914602229  0.4992652746476481
 -0.0007182049210267  0.7499999782749526  0.7499997991250377
  0.2500000002502610  0.5049500896327342  0.7500001616131271
  0.5037890522420942  0.5037891183477303  0.4962159077984805
  0.2500000375623380  0.7499999997827658  0.0007347092271576
  0.5006723694155006  0.2500000202121537  0.2500001833093604
  0.7500000108419211 -0.0003152263310852  0.2499997445845647
  0.9962108878621512  0.9962108258225010  0.0037841719194584
  0.7499999852165395  0.2500000236849331  0.4992653221303223
  0.5049501680401387  0.2500000021089485  0.7500001670493331
  0.7499999790358715 -0.0007181096995515  0.7499997719252439
  0.9962110708208360  0.9962110058603357  0.4962103521598205
  0.7500000012805802  0.2500000340863256  0.0007346548109965
  0.5003152997707458  0.7500000078209846  0.2500002749035367
  0.7499999963308769  0.5003152523455872  0.2500002727975628
  0.9962109893787811  0.5037890738619855  0.0037868696704816
  0.7500000373600131  0.7500000106543210  0.4996557880975942
  0.5007182203696874  0.7499999830529424  0.7500001961061774
  0.7499999849479844  0.5007181311085276  0.7500001932857018
  0.9962110338816680  0.5037890878023092  0.4962131420446295
  0.7499999774391467  0.7499999737785340  0.0003442061867521
 
  0.00000000E+00  0.00000000E+00  0.00000000E+00
  0.00000000E+00  0.00000000E+00  0.00000000E+00
  0.00000000E+00  0.00000000E+00  0.00000000E+00
  0.00000000E+00  0.00000000E+00  0.00000000E+00
  0.00000000E+00  0.00000000E+00  0.00000000E+00
  0.00000000E+00  0.00000000E+00  0.00000000E+00
  0.00000000E+00  0.00000000E+00  0.00000000E+00
  0.00000000E+00  0.00000000E+00  0.00000000E+00
  0.00000000E+00  0.00000000E+00  0.00000000E+00
  0.00000000E+00  0.00000000E+00  0.00000000E+00
  0.00000000E+00  0.00000000E+00  0.00000000E+00
  0.00000000E+00  0.00000000E+00  0.00000000E+00
  0.00000000E+00  0.00000000E+00  0.00000000E+00
  0.00000000E+00  0.00000000E+00  0.00000000E+00
  0.00000000E+00  0.00000000E+00  0.00000000E+00
  0.00000000E+00  0.00000000E+00  0.00000000E+00
  0.00000000E+00  0.00000000E+00  0.00000000E+00
  0.00000000E+00  0.00000000E+00  0.00000000E+00
  0.00000000E+00  0.00000000E+00  0.00000000E+00
  0.00000000E+00  0.00000000E+00  0.00000000E+00
  0.00000000E+00  0.00000000E+00  0.00000000E+00
  0.00000000E+00  0.00000000E+00  0.00000000E+00
  0.00000000E+00  0.00000000E+00  0.00000000E+00
  0.00000000E+00  0.00000000E+00  0.00000000E+00
  0.00000000E+00  0.00000000E+00  0.00000000E+00
  0.00000000E+00  0.00000000E+00  0.00000000E+00
  0.00000000E+00  0.00000000E+00  0.00000000E+00
  0.00000000E+00  0.00000000E+00  0.00000000E+00
  0.00000000E+00  0.00000000E+00  0.00000000E+00
  0.00000000E+00  0.00000000E+00  0.00000000E+00
  0.00000000E+00  0.00000000E+00  0.00000000E+00
  0.00000000E+00  0.00000000E+00  0.00000000E+00
  0.00000000E+00  0.00000000E+00  0.00000000E+00
