Pd Zn Pd  C                             
   1.00000000000000     
     4.1445464347012333   -0.0000021059972800   -0.0000006365316385
    -0.0000021047526517    4.1445952101529020    0.0000008161128867
    -0.0000004573311712    0.0000008606844713    4.1490579671524355
   Pd   Zn   Pd   C 
     2     1     1     1
Direct
 -0.0000000149834030  0.5000000576331598  0.4999999527125512
  0.5000000444092245 -0.0000000161979417  0.5000000408217169
  0.9999999803900387  0.9999999675930680  0.0000000016972156
  0.4999999734938230  0.4999999913729358 -0.0000000247120418
  0.5000000166903097  0.4999999995987851  0.5000000294805652
 
  0.00000000E+00  0.00000000E+00  0.00000000E+00
  0.00000000E+00  0.00000000E+00  0.00000000E+00
  0.00000000E+00  0.00000000E+00  0.00000000E+00
  0.00000000E+00  0.00000000E+00  0.00000000E+00
  0.00000000E+00  0.00000000E+00  0.00000000E+00
