Pd Zn  C                                
   1.00000000000000     
    11.8677976381528651   -0.0000010163382779   -0.0000008049932407
    -0.0000010009171108   11.8678201545160604   -0.0000001957326928
    -0.0000002900763243   -0.0000000641180118   11.8720790505393303
   Pd   Zn   C 
    81    27     1
Direct
  0.0000002965675390  0.1664196483730978  0.1664172321645345
  0.1664212182172638  0.0000000400790358  0.1664170588924573
  0.1661069700835034  0.1661054776875769  0.3330394322974076
  0.0000001739205591  0.1656378963375464  0.5000004708900915
  0.1656385654484306  0.0000000327938885  0.5000004304112072
  0.1661070568954866  0.1661055451898469  0.6669611202341708
  0.0000002914783543  0.1664195074870082  0.8335823637295680
  0.1664211064501594  0.0000000124300070  0.8335825619978333
  0.1664232609241585  0.1664215701325387  0.9999995770399951
  0.0000002203508592  0.5000000271442546  0.1656444356852948
  0.1661093041902058  0.3330466938626644  0.1661042502858830
  0.1655221274015037  0.4999999734243334  0.3326459669167157
  0.0000003218801830  0.5000000359360285  0.5000002929943459
  0.1655172171901240  0.3326348332045147  0.5000006773755830
  0.1655223704010990  0.4999999700404170  0.6673543906488777
  0.0000002005993422  0.5000000179956476  0.8343555907646427
  0.1661089868131448  0.3330466590847949  0.8338954980065951
  0.1656631339722096  0.5000000042184701  0.9999996987028912
  0.0000003037690793  0.8335803135264011  0.1664171990169200
  0.1661091539175241  0.6669532412975711  0.1661041458742346
  0.1661069516494835  0.8338945132683487  0.3330393939039413
  0.0000001826380023  0.8343620510327032  0.5000004046430563
  0.1655170697291259  0.6673651390888233  0.5000005307501467
  0.1661069985393487  0.8338944684146046  0.6669611220875693
  0.0000002862120029  0.8335804455254998  0.8335824878010559
  0.1661090692730719  0.6669532991936823  0.8338954567094781
  0.1664231839056021  0.8335783992747944  0.9999995439424244
  0.3330474901407751  0.1661077762215573  0.1661043183104725
  0.4999996130313775  0.0000000399310186  0.1656427527919875
  0.4999996487552550  0.1655201666891599  0.3326450573299784
  0.3326354106382839  0.1655161711172070  0.5000007261849200
  0.4999997073896083 -0.0000000292890824  0.5000002552459921
  0.4999996411505989  0.1655204268741982  0.6673552970197550
  0.3330474586339542  0.1661074818434319  0.8338954049186698
  0.4999996273214543 -0.0000000012596062  0.8343572562423027
  0.4999996502814444  0.1656607696004963  0.9999997306034515
  0.3326502478410078  0.4999999176298345  0.1655434762904378
  0.4999995189497930  0.3326487326760916  0.1655426186084767
  0.5000000262591953  0.4999998854608086  0.3294155457134155
  0.3293683236330802  0.4999999124842883  0.5000001880365879
  0.5000000187530333  0.3293677186756570  0.5000002157390718
  0.5000000757415516  0.4999999334317291  0.6705860997929461
  0.3326501439754759  0.5000000654388912  0.8344561526891504
  0.4999997115396635  0.3326486046704877  0.8344570276385249
  0.4999996483739240  0.5000000808515838  0.9999997196957620
  0.3330475093724504  0.8338923182923165  0.1661041557210940
  0.4999995216192535  0.6673512711678103  0.1655422862443511
  0.4999996802713929  0.8344799871407780  0.3326450393306494
  0.3326354314267460  0.8344839519898728  0.5000004591506032
  0.5000001050014448  0.6706316334824772  0.4999999643520510
  0.4999996647314474  0.8344796796520242  0.6673552795205212
  0.3330474682889485  0.8338924016873626  0.8338953834770547
  0.4999997132782231  0.6673514146929508  0.8344570341531535
  0.4999996651234233  0.8343391805897504  0.9999996443779631
  0.6669521785748601  0.1661077009440012  0.1661042862922729
  0.8335791580068033  0.0000000525712818  0.1664173734093463
  0.8338933266931261  0.1661056485774164  0.3330394758503254
  0.6673643121592459  0.1655163110320074  0.5000005441386252
  0.8343615134941808  0.0000000667897855  0.5000004162761713
  0.8338932853495189  0.1661056675469081  0.6669610549251360
  0.6669522550258286  0.1661076104421072  0.8338953034694835
  0.8335792548714446  0.0000000171292920  0.8335823169723308
  0.8335770817583900  0.1664217625364677  0.9999995521406071
  0.6673494211867758  0.4999999139996861  0.1655434993431446
  0.8338912002321693  0.3330467209868755  0.1661043858762434
  0.8344780941990615  0.4999999914410673  0.3326460317973689
  0.6706319893653304  0.4999999013093483  0.5000000027748172
  0.8344828990106227  0.3326348923118381  0.5000004579319516
  0.8344777773292824  0.4999999912897562  0.6673542797933599
  0.6673495797826428  0.5000000800934534  0.8344558668798240
  0.8338912620535964  0.3330466899333406  0.8338951645214185
  0.8343369545692328  0.5000000177880812  0.9999996407783469
  0.6669521971753819  0.8338924051800756  0.1661041459688157
  0.8338913352795366  0.6669532273843480  0.1661042868255835
  0.8338933534527400  0.8338943443106316  0.3330394428039717
  0.6673643195687112  0.8344838335227744  0.5000002986516348
  0.8344830465715226  0.6673650929036130  0.5000003194832037
  0.8338933550647962  0.8338943345292535  0.6669610597016024
  0.6669522272723905  0.8338922509176673  0.8338952804072002
  0.8338911732042638  0.6669532584809893  0.8338951161806827
  0.8335771310285663  0.8335781964204499  0.9999995168505292
  0.3335198956952920  0.0000001103000524 -0.0000000993385137
  0.3335340620718789  0.0000001736686971  0.3335345637133285
  0.3335340091719229  0.0000001084741702  0.6664651881030473
  0.3335403171110116  0.3335410095027133  0.9999996380063627
  0.3301786084101700  0.3301792709976769  0.3301788139604948
  0.3301793858027407  0.3301800454664048  0.6698254023850709
  0.3335403349562486  0.6664588614014507 -0.0000001735571401
  0.3301789591033752  0.6698205327089904  0.3301766725124666
  0.3301789975170286  0.6698199726534411  0.6698232981944943
  0.6664803410847647  0.0000001200721815  0.0000001141102072
  0.6664661730064516  0.0000001644049139  0.3335348337250797
  0.6664662237263455  0.0000001065937655  0.6664654579994801
  0.6664599072567927  0.3335410096535556 -0.0000001553290353
  0.6698214965242923  0.3301794210174241  0.3301764690901984
  0.6698209204273756  0.3301794694264737  0.6698234760548273
  0.6664598924767583  0.6664588608953633  0.0000000324842779
  0.6698211457413604  0.6698203889851496  0.3301743378722131
  0.6698213121850485  0.6698205435268848  0.6698213685370403
  0.9999997314140568  0.0000000839528066  0.0000001187427365
  0.9999997575544654  0.0000001285542452  0.3335163944841167
  0.9999997480665328  0.0000001022748318  0.6664835070991033
  0.9999997662316411  0.3335207746124494 -0.0000000945936981
  0.9999998823613442  0.3335347649919301  0.3335345695535502
  0.9999998426072746  0.3335347210184201  0.6664651754395360
  0.9999997684294648  0.6664791426640255  0.0000001050531764
  0.9999998827432901  0.6664651122356614  0.3335348580321011
  0.9999998416249368  0.6664651573040747  0.6664654382485736
  0.4999993704778555  0.5000005544825974  0.4999991464266776
 
  0.00000000E+00  0.00000000E+00  0.00000000E+00
  0.00000000E+00  0.00000000E+00  0.00000000E+00
  0.00000000E+00  0.00000000E+00  0.00000000E+00
  0.00000000E+00  0.00000000E+00  0.00000000E+00
  0.00000000E+00  0.00000000E+00  0.00000000E+00
  0.00000000E+00  0.00000000E+00  0.00000000E+00
  0.00000000E+00  0.00000000E+00  0.00000000E+00
  0.00000000E+00  0.00000000E+00  0.00000000E+00
  0.00000000E+00  0.00000000E+00  0.00000000E+00
  0.00000000E+00  0.00000000E+00  0.00000000E+00
  0.00000000E+00  0.00000000E+00  0.00000000E+00
  0.00000000E+00  0.00000000E+00  0.00000000E+00
  0.00000000E+00  0.00000000E+00  0.00000000E+00
  0.00000000E+00  0.00000000E+00  0.00000000E+00
  0.00000000E+00  0.00000000E+00  0.00000000E+00
  0.00000000E+00  0.00000000E+00  0.00000000E+00
  0.00000000E+00  0.00000000E+00  0.00000000E+00
  0.00000000E+00  0.00000000E+00  0.00000000E+00
  0.00000000E+00  0.00000000E+00  0.00000000E+00
  0.00000000E+00  0.00000000E+00  0.00000000E+00
  0.00000000E+00  0.00000000E+00  0.00000000E+00
  0.00000000E+00  0.00000000E+00  0.00000000E+00
  0.00000000E+00  0.00000000E+00  0.00000000E+00
  0.00000000E+00  0.00000000E+00  0.00000000E+00
  0.00000000E+00  0.00000000E+00  0.00000000E+00
  0.00000000E+00  0.00000000E+00  0.00000000E+00
  0.00000000E+00  0.00000000E+00  0.00000000E+00
  0.00000000E+00  0.00000000E+00  0.00000000E+00
  0.00000000E+00  0.00000000E+00  0.00000000E+00
  0.00000000E+00  0.00000000E+00  0.00000000E+00
  0.00000000E+00  0.00000000E+00  0.00000000E+00
  0.00000000E+00  0.00000000E+00  0.00000000E+00
  0.00000000E+00  0.00000000E+00  0.00000000E+00
  0.00000000E+00  0.00000000E+00  0.00000000E+00
  0.00000000E+00  0.00000000E+00  0.00000000E+00
  0.00000000E+00  0.00000000E+00  0.00000000E+00
  0.00000000E+00  0.00000000E+00  0.00000000E+00
  0.00000000E+00  0.00000000E+00  0.00000000E+00
  0.00000000E+00  0.00000000E+00  0.00000000E+00
  0.00000000E+00  0.00000000E+00  0.00000000E+00
  0.00000000E+00  0.00000000E+00  0.00000000E+00
  0.00000000E+00  0.00000000E+00  0.00000000E+00
  0.00000000E+00  0.00000000E+00  0.00000000E+00
  0.00000000E+00  0.00000000E+00  0.00000000E+00
  0.00000000E+00  0.00000000E+00  0.00000000E+00
  0.00000000E+00  0.00000000E+00  0.00000000E+00
  0.00000000E+00  0.00000000E+00  0.00000000E+00
  0.00000000E+00  0.00000000E+00  0.00000000E+00
  0.00000000E+00  0.00000000E+00  0.00000000E+00
  0.00000000E+00  0.00000000E+00  0.00000000E+00
  0.00000000E+00  0.00000000E+00  0.00000000E+00
  0.00000000E+00  0.00000000E+00  0.00000000E+00
  0.00000000E+00  0.00000000E+00  0.00000000E+00
  0.00000000E+00  0.00000000E+00  0.00000000E+00
  0.00000000E+00  0.00000000E+00  0.00000000E+00
  0.00000000E+00  0.00000000E+00  0.00000000E+00
  0.00000000E+00  0.00000000E+00  0.00000000E+00
  0.00000000E+00  0.00000000E+00  0.00000000E+00
  0.00000000E+00  0.00000000E+00  0.00000000E+00
  0.00000000E+00  0.00000000E+00  0.00000000E+00
  0.00000000E+00  0.00000000E+00  0.00000000E+00
  0.00000000E+00  0.00000000E+00  0.00000000E+00
  0.00000000E+00  0.00000000E+00  0.00000000E+00
  0.00000000E+00  0.00000000E+00  0.00000000E+00
  0.00000000E+00  0.00000000E+00  0.00000000E+00
  0.00000000E+00  0.00000000E+00  0.00000000E+00
  0.00000000E+00  0.00000000E+00  0.00000000E+00
  0.00000000E+00  0.00000000E+00  0.00000000E+00
  0.00000000E+00  0.00000000E+00  0.00000000E+00
  0.00000000E+00  0.00000000E+00  0.00000000E+00
  0.00000000E+00  0.00000000E+00  0.00000000E+00
  0.00000000E+00  0.00000000E+00  0.00000000E+00
  0.00000000E+00  0.00000000E+00  0.00000000E+00
  0.00000000E+00  0.00000000E+00  0.00000000E+00
  0.00000000E+00  0.00000000E+00  0.00000000E+00
  0.00000000E+00  0.00000000E+00  0.00000000E+00
  0.00000000E+00  0.00000000E+00  0.00000000E+00
  0.00000000E+00  0.00000000E+00  0.00000000E+00
  0.00000000E+00  0.00000000E+00  0.00000000E+00
  0.00000000E+00  0.00000000E+00  0.00000000E+00
  0.00000000E+00  0.00000000E+00  0.00000000E+00
  0.00000000E+00  0.00000000E+00  0.00000000E+00
  0.00000000E+00  0.00000000E+00  0.00000000E+00
  0.00000000E+00  0.00000000E+00  0.00000000E+00
  0.00000000E+00  0.00000000E+00  0.00000000E+00
  0.00000000E+00  0.00000000E+00  0.00000000E+00
  0.00000000E+00  0.00000000E+00  0.00000000E+00
  0.00000000E+00  0.00000000E+00  0.00000000E+00
  0.00000000E+00  0.00000000E+00  0.00000000E+00
  0.00000000E+00  0.00000000E+00  0.00000000E+00
  0.00000000E+00  0.00000000E+00  0.00000000E+00
  0.00000000E+00  0.00000000E+00  0.00000000E+00
  0.00000000E+00  0.00000000E+00  0.00000000E+00
  0.00000000E+00  0.00000000E+00  0.00000000E+00
  0.00000000E+00  0.00000000E+00  0.00000000E+00
  0.00000000E+00  0.00000000E+00  0.00000000E+00
  0.00000000E+00  0.00000000E+00  0.00000000E+00
  0.00000000E+00  0.00000000E+00  0.00000000E+00
  0.00000000E+00  0.00000000E+00  0.00000000E+00
  0.00000000E+00  0.00000000E+00  0.00000000E+00
  0.00000000E+00  0.00000000E+00  0.00000000E+00
  0.00000000E+00  0.00000000E+00  0.00000000E+00
  0.00000000E+00  0.00000000E+00  0.00000000E+00
  0.00000000E+00  0.00000000E+00  0.00000000E+00
  0.00000000E+00  0.00000000E+00  0.00000000E+00
  0.00000000E+00  0.00000000E+00  0.00000000E+00
  0.00000000E+00  0.00000000E+00  0.00000000E+00
  0.00000000E+00  0.00000000E+00  0.00000000E+00
  0.00000000E+00  0.00000000E+00  0.00000000E+00
